benchmarks_vrp/CMT4/fixed_c_size/CMT4_3.vrp
NAME: CMT4_3
TYPE: CVRP
COMMENT: 1028.42 - Cluster Nr.3
DIMENSION: 10
CAPACITY: 200
EDGE_WEIGHT_TYPE: EUC_2D
NODE_COORD_TYPE: TWOD_COORDS
NODE_COORD_SECTION: 
10 51 21
4 63 23
2 55 20
8 65 20
5 35 35
1 60 12
6 55 5
7 67 5
3 53 12
9 59 15
DEPOT_SECTION: 
5
-1
DEMAND_SECTION: 
10 5
6 29
8 6
2 19
9 14
7 25
1 31
5 0
3 6
4 2
EOF
