benchmarks_vrp/CMT4/fixed_c_size/CMT4_3.tour
NAME: CMT4_3 solution
TYPE: TOUR
TOUR_SECTION:
5 3 6 7 1 9 8 4 2 10 -1
-1
EOF